NAME          
ROWS
 N  OBJ
 L  c1
 L  c2
 L  c3
 L  c4
COLUMNS
    MARKER    'MARKER'                 'INTORG'
    x[1]      c1        513
    x[1]      c2        952
    x[1]      c3        35
    x[1]      c4        361
    x[1]      OBJ       -829
    x[2]      c1        851
    x[2]      c2        150
    x[2]      c3        372
    x[2]      c4        613
    x[2]      OBJ       -398
    x[3]      c1        960
    x[3]      c2        688
    x[3]      c3        28
    x[3]      c4        143
    x[3]      OBJ       -206
    x[4]      c1        188
    x[4]      c2        54
    x[4]      c3        656
    x[4]      c4        269
    x[4]      OBJ       -178
    x[5]      c1        332
    x[5]      c2        981
    x[5]      c3        751
    x[5]      c4        544
    x[5]      OBJ       -345
    x[6]      c1        560
    x[6]      c2        276
    x[6]      c3        543
    x[6]      c4        361
    x[6]      OBJ       -856
    x[7]      c1        666
    x[7]      c2        548
    x[7]      c3        553
    x[7]      c4        881
    x[7]      OBJ       -405
    x[8]      c1        619
    x[8]      c2        475
    x[8]      c3        67
    x[8]      c4        649
    x[8]      OBJ       -518
    x[9]      c1        651
    x[9]      c2        256
    x[9]      c3        595
    x[9]      c4        708
    x[9]      OBJ       -374
    x[10]     c1        874
    x[10]     c2        340
    x[10]     c3        871
    x[10]     c4        768
    x[10]     OBJ       -613
RHS
    rhs       c1        3107
    rhs       c2        2360
    rhs       c3        2236
    rhs       c4        2648
RANGES
BOUNDS
 BV bounds    x[1]
 BV bounds    x[2]
 BV bounds    x[3]
 BV bounds    x[4]
 BV bounds    x[5]
 BV bounds    x[6]
 BV bounds    x[7]
 BV bounds    x[8]
 BV bounds    x[9]
 BV bounds    x[10]
ENDATA
